Route #1: 67 46 34 52 27 45 29 5 47 48
Route #2: 21 61 69 36 71 60 70 20 37 15 57 13 54 19 8
Route #3: 7 35 53 14 59 11 66 65 38
Route #4: 10 31 55 25 50 18 24 49 56 23 63 16
Route #5: 33 73 1 43 41 42 64 22 62 28 74 30
Route #6: 75 4 68 2 6 51 3 44 40 17
Route #7: 12 32 9 39 72 58 26
Cost 732